1715.84
0 38 32 12 4 29 71 2 6 68 0
0 63 43 64 60 69 57 59 53 26 67 0
0 41 42 22 3 23 44 9 55 50 16 61 33 0
0 11 72 10 65 66 45 62 19 14 31 0
0 27 13 34 17 7 18 25 73 1 40 58 0
0 49 56 15 8 46 54 48 28 21 52 35 74 0
0 39 24 30 47 5 20 36 70 75 37 51 0
